NAME          BLANK   
ROWS
 N  OBJROW
 L  R0000000
COLUMNS
    C0000000  OBJROW     -754.         R0000000  461.        
    C0000001  OBJROW     -924.         R0000000  665.        
    C0000002  OBJROW     -118.         R0000000  553.        
    C0000003  OBJROW     -543.         R0000000  567.        
    C0000004  OBJROW     -143.         R0000000  191.        
    C0000005  OBJROW     -869.         R0000000  480.        
    C0000006  OBJROW     -227.         R0000000  618.        
    C0000007  OBJROW     -955.         R0000000  18.         
    C0000008  OBJROW     -119.         R0000000  377.        
    C0000009  OBJROW     -975.         R0000000  124.        
    C0000010  OBJROW     -697.         R0000000  51.         
    C0000011  OBJROW     -558.         R0000000  130.        
RHS
    RHS       R0000000  14228.      
BOUNDS
 BV BOUND     C0000000  1.          
 BV BOUND     C0000001  1.          
 BV BOUND     C0000002  1.          
 BV BOUND     C0000003  1.          
 BV BOUND     C0000004  1.          
 BV BOUND     C0000005  1.          
 BV BOUND     C0000006  1.          
 BV BOUND     C0000007  1.          
 BV BOUND     C0000008  1.          
 BV BOUND     C0000009  1.          
 BV BOUND     C0000010  1.          
 BV BOUND     C0000011  1.          
ENDATA
